50 9516

260
261
178
72
327
252
193
195
187
176
86
276
407
34
101
356
1
229
386
433
168
165
77
328
216
145
492
151
352
385
229
186
103
51
196
431
328
473
31
246
500
274
423
335
143
118
58
205
494
183
